Solving original (integer) problem with strategy gdp.binary_multiplication...
--- Job model.gms Start 02/19/26 02:40:18 52.2.0 d8e408be LEX-LEG x86 64bit/Linux
--- Applying:
    /package/gams/52.2/gmsprmun.txt
--- GAMS Parameters defined
    Input /local/scratch/a/sgusev/repos/k_means/data/gams_gurobi_gdp.binary_multiplication/no_mode/2026-02-19_02-40-18/original/model.gms
    Output /local/scratch/a/sgusev/repos/k_means/data/gams_gurobi_gdp.binary_multiplication/no_mode/2026-02-19_02-40-18/original/output.lst
    ScrDir /local/scratch/a/sgusev/repos/k_means/data/gams_gurobi_gdp.binary_multiplication/no_mode/2026-02-19_02-40-18/original/225a/
    SysDir /package/gams/52.2/
    CurDir /local/scratch/a/sgusev/repos/k_means/data/gams_gurobi_gdp.binary_multiplication/no_mode/2026-02-19_02-40-18/original/
    LogOption 3
    AppendLog 1
Licensee: David Bernal / SECQUOIA Research Group         G251008+0003Ac-GEN
          Purdue University, Davidson School of Chemical EngineeringDCE4838
          225a/gamslice.dat
          5a82958a-fbca-4a23
          node:66820903 mem:995 cores:48 ipport:52947 v:2                  
          Evaluation license: Not for commercial or production use
          The time-limited license stops working on : Jun 30, 2027
System information: 48 physical cores and 995 Gb physical memory detected
GAMS 52.2.0   Copyright (C) 1987-2025 GAMS Development. All rights reserved
--- Starting compilation
--- model.gms(266) 2 Mb
--- $echo File /local/scratch/a/sgusev/repos/k_means/data/gams_gurobi_gdp.binary_multiplication/no_mode/2026-02-19_02-40-18/original/gurobi.opt
--- model.gms(468) 2 Mb
--- Starting execution: elapsed 0:00:00.006
--- model.gms(275) 3 Mb
--- Generating MINLP model GAMS_MODEL
--- model.gms(279) 5 Mb
---   63 rows  73 columns  335 non-zeroes
---   855 nl-code  270 nl-non-zeroes
---   45 discrete-columns
--- Range statistics (absolute non-zero finite values)
--- RHS       [min, max] : [ 1.000E+00, 1.000E+00] - Zero values observed as well
--- Bound     [min, max] : [ 1.000E+00, 1.200E+02] - Zero values observed as well
--- Matrix    [min, max] : [ 4.810E-01, 2.398E+00] - Zero values observed as well
--- model.gms(279) 3 Mb
--- Executing GUROBI (Solvelink=5): elapsed 0:00:00.009
Reading parameter(s) from "/local/scratch/a/sgusev/repos/k_means/data/gams_gurobi_gdp.binary_multiplication/no_mode/2026-02-19_02-40-18/original/gurobi.opt"
>>  NonConvex 2
>>  Threads 1
>>  MIPGap 1e-06
>>  MIPGapAbs 1e-10
>>  FeasibilityTol 1e-06
>>  OptimalityTol 1e-06
>>  IntFeasTol 1e-05
Finished reading from "/local/scratch/a/sgusev/repos/k_means/data/gams_gurobi_gdp.binary_multiplication/no_mode/2026-02-19_02-40-18/original/gurobi.opt"

... GRB_LICENSE_FILE = /local/scratch/a/sgusev/gurobi.lic

    Gurobi           52.2.0 d8e408be Dec 8, 2025           LEG x86 64bit/Linux    

... GAMS/Gurobi Link license.
... GMO Q Extraction (ThreePass): 0.00s

    Gurobi Optimizer version 13.0.0 build v13.0.0rc1 (linux64 - "Oracle Linux Server 9.7")
    
    CPU model: AMD EPYC 7643 48-Core Processor, instruction set [SSE2|AVX|AVX2]
    Thread count: 48 physical cores, 96 logical processors, using up to 1 threads
    
    Non-default parameters:
    TimeLimit  300
    MIPGap  1e-06
    LogToConsole  0
    NonConvex  2
    Threads  1
    
    Optimize a model with 62 rows, 117 columns and 94 nonzeros (Min)
    Model fingerprint: 0xd779992f
    Model has 15 linear objective coefficients
    Model has 45 general nonlinear constraints (225 nonlinear terms)
    Variable types: 72 continuous, 45 integer (0 binary)
    Coefficient statistics:
      Matrix range     [1e+00, 1e+00]
      Objective range  [1e+00, 1e+00]
      Bounds range     [1e+00, 1e+02]
      RHS range        [1e+00, 1e+00]
      NLCon coe range  [9e-03, 1e+00]
    Presolve model has 45 nlconstr
    Added 405 variables to disaggregate expressions
    Presolve removed 45 rows and 0 columns
    Presolve time: 0.00s
    Presolved: 962 rows, 568 columns, 2209 nonzeros
    Presolved model has 180 bilinear constraint(s)
    
    Solving non-convex MIQCP to global optimality
    
    Variable types: 523 continuous, 45 integer (45 binary)
    Found heuristic solution: objective 17.9736145
    
    Root relaxation: objective 0.000000e+00, 304 iterations, 0.00 seconds (0.00 work units)
    
        Nodes    |    Current Node    |     Objective Bounds      |     Work
     Expl Unexpl |  Obj  Depth IntInf | Incumbent    BestBd   Gap | It/Node Time
    
         0     0    0.00000    0   81   17.97361    0.00000   100%     -    0s
         0     0    0.00000    0  151   17.97361    0.00000   100%     -    0s
         0     0    0.00000    0  151   17.97361    0.00000   100%     -    0s
         0     0    0.00000    0  174   17.97361    0.00000   100%     -    0s
         0     0    0.00000    0  181   17.97361    0.00000   100%     -    0s
         0     0    0.00000    0  183   17.97361    0.00000   100%     -    0s
         0     0    0.00000    0  195   17.97361    0.00000   100%     -    0s
         0     0    0.00000    0  195   17.97361    0.00000   100%     -    0s
         0     0    0.00000    0  195   17.97361    0.00000   100%     -    0s
         0     0    0.00000    0  210   17.97361    0.00000   100%     -    0s
         0     0    0.00000    0  202   17.97361    0.00000   100%     -    0s
         0     0    0.00000    0  202   17.97361    0.00000   100%     -    0s
         0     0    0.00000    0  200   17.97361    0.00000   100%     -    0s
    H    0     0                      16.5698839    0.00000   100%     -    0s
    H    0     0                      16.4621540    0.00000   100%     -    0s
    H    0     0                      13.9784355    0.00000   100%     -    0s
         0     2    0.00000    0  196   13.97844    0.00000   100%     -    0s
    H   33    33                      11.9898369    0.00000   100%   9.3    0s
    H   37    36                      11.8327450    0.00000   100%   9.3    0s
    H   37    36                      11.8327450    0.00000   100%   9.3    0s
    H   39    38                      11.1950592    0.00000   100%   9.6    0s
    H  224   186                      11.1950592    0.00000   100%  13.5    0s
    H  275   237                      11.1503886    0.00000   100%  12.4    0s
    H  283   245                      11.0760665    0.00000   100%  12.2    0s
    H  287   249                      11.0730042    0.00000   100%  12.1    0s
    H  296   254                      10.7737578    0.00000   100%  12.1    0s
    H  321   263                      10.7729171    0.00000   100%  13.0    0s
    H  321   254                      10.1709851    0.00000   100%  13.0    0s
    H  333   246                       9.9714972    0.00000   100%  13.7    0s
    H  367   276                       9.9683509    0.00000   100%  13.3    0s
    H  369   266                       9.7776661    0.00000   100%  13.2    0s
    H  394   269                       9.5313659    0.00000   100%  13.0    0s
    H  399   268                       9.4332258    0.00000   100%  13.0    0s
    H  402   269                       9.3722228    0.00000   100%  13.0    0s
    H  420   283                       9.3413411    0.00000   100%  12.7    0s
    H  430   293                       9.3243788    0.00000   100%  12.6    0s
    H  438   299                       9.2936028    0.00000   100%  12.6    0s
    H  443   296                       9.2885873    0.00000   100%  12.6    0s
    H  611   388                       9.2684760    0.00000   100%  19.5    1s
    H  611   368                       9.2684760    0.00000   100%  19.5    1s
    H  883   435                       9.2563673    0.00000   100%  22.8    2s
    H  883   417                       9.2563562    0.00000   100%  22.8    2s
    H  883   400                       9.2563537    0.00000   100%  22.8    2s
    H  910   394                       9.2509270    0.00000   100%  23.6    2s
    H  910   379                       9.2506620    0.00000   100%  23.6    2s
    H 1135   443                       9.2505261    0.00000   100%  24.6    2s
    H 2135   957                       9.2505218    0.65932  92.9%  23.3    3s
    H 2222  1000                       9.1337351    0.65932  92.8%  23.0    3s
    H 2932  1352                       9.0482750    1.41643  84.3%  23.0    3s
    H 3935  1757                       9.0482750    1.94550  78.5%  23.7    4s
    H 3937  1730                       8.7496997    1.94550  77.8%  23.7    4s
    H 3937  1729                       8.7445088    1.94550  77.8%  23.7    4s
    H 3937  1729                       8.7442185    1.94550  77.8%  23.7    4s
    H 3937  1729                       8.7441109    1.94550  77.8%  23.7    4s
      3953  1745    7.53830   37  161    8.74411    1.94550  77.8%  23.6    5s
    H 4537  1920                       8.6130076    2.07482  75.9%  23.7    5s
    H 4537  1913                       8.6023432    2.07482  75.9%  23.7    5s
    H 4537  1913                       8.5991293    2.07482  75.9%  23.7    5s
    H 4537  1913                       8.5991260    2.07482  75.9%  23.7    5s
    H 6600  2616                       8.4277749    2.64691  68.6%  23.5    7s
      9101  3348    7.19945   24  193    8.42777    3.27430  61.1%  23.6   10s
     14524  4771    5.65815   25  186    8.42777    3.94821  53.2%  23.7   15s
     19948  5951    7.54367   38  177    8.42777    4.46362  47.0%  23.5   20s
     24997  6755     cutoff   31         8.42777    4.81109  42.9%  23.5   25s
    H26798  6829                       8.2404239    4.90714  40.5%  23.4   27s
    H26851  6834                       8.2404238    4.91030  40.4%  23.4   27s
     29198  7037 infeasible   30         8.24042    5.04631  38.8%  23.4   30s
     33957  7434    6.64519   25  189    8.24042    5.31618  35.5%  23.2   35s
     37922  7705     cutoff   27         8.24042    5.50695  33.2%  23.1   40s
     42653  7857     cutoff   30         8.24042    5.71114  30.7%  23.0   45s
     47437  7880    7.43384   29  190    8.24042    5.89978  28.4%  22.9   50s
     52030  7762     cutoff   32         8.24042    6.07311  26.3%  22.9   55s
     56650  7444    7.03688   28  181    8.24042    6.26545  24.0%  22.8   60s
     61198  7075     cutoff   23         8.24042    6.43015  22.0%  22.7   65s
     65382  6552    7.74033   22  192    8.24042    6.60272  19.9%  22.6   70s
     69454  5872     cutoff   28         8.24042    6.79774  17.5%  22.6   75s
     73656  4904     cutoff   41         8.24042    7.04739  14.5%  22.5   80s
     78158  3960     cutoff   47         8.24042    7.35204  10.8%  22.3   85s
     83010  3948    7.94901   52  135    8.24042    7.58206  7.99%  21.8   90s
     87942  4230    8.05571   57  120    8.24042    7.68646  6.72%  21.2   95s
     93043  5050     cutoff   56         8.24042    7.74693  5.99%  20.7  100s
     97894  5633     cutoff   59         8.24042    7.80295  5.31%  20.2  105s
     102951  6424    8.02163   53  135    8.24042    7.84595  4.79%  19.7  110s
     108059  7037     cutoff   64         8.24042    7.88201  4.35%  19.3  115s
     113175  7933    8.18074   53  120    8.24042    7.90642  4.05%  18.8  120s
     117977  8497     cutoff   41         8.24042    7.92740  3.80%  18.4  125s
     123145  9100     cutoff   61         8.24042    7.94453  3.59%  18.1  130s
     128680  9763    8.22258   63   90    8.24042    7.95918  3.41%  17.7  135s
     134229 10498     cutoff   64         8.24042    7.97522  3.22%  17.3  140s
     139896 11371     cutoff   63         8.24042    7.98777  3.07%  16.9  145s
     145623 12012    8.22501   64  120    8.24042    7.99888  2.93%  16.6  150s
     151106 12573    8.16019   55  105    8.24042    8.00891  2.81%  16.3  155s
     156821 12958    8.16469   52  150    8.24042    8.01910  2.69%  16.0  160s
     162677 13670    8.21415   70   75    8.24042    8.02734  2.59%  15.7  165s
     168203 14270    8.07529   62  150    8.24042    8.03455  2.50%  15.4  170s
     174082 14847     cutoff   69         8.24042    8.04207  2.41%  15.2  175s
     179941 15388    8.22516   61   90    8.24042    8.04938  2.32%  14.9  180s
     185808 15893     cutoff   54         8.24042    8.05710  2.22%  14.7  185s
     191474 16295    8.21688   72  120    8.24042    8.06389  2.14%  14.5  190s
     197466 16993     cutoff   66         8.24042    8.07004  2.07%  14.3  195s
     203248 18187    8.22342   69   75    8.24042    8.07491  2.01%  14.1  200s
     209074 18549    8.14058   59  120    8.24042    8.08143  1.93%  14.0  205s
     214873 18724    8.12910   56  150    8.24042    8.08813  1.85%  13.8  210s
     220412 18885    8.18915   71   90    8.24042    8.09437  1.77%  13.7  215s
     226153 18930     cutoff   67         8.24042    8.10010  1.70%  13.6  220s
     232005 19204    8.17885   67  120    8.24042    8.10583  1.63%  13.4  225s
     237665 19696    8.17025   69  105    8.24042    8.11030  1.58%  13.3  230s
     243594 20365     cutoff   68         8.24042    8.11533  1.52%  13.2  235s
     249362 21411     cutoff   77         8.24042    8.11916  1.47%  13.1  240s
     255367 22466     cutoff   64         8.24042    8.12354  1.42%  13.0  245s
     261436 23337     cutoff   65         8.24042    8.12749  1.37%  12.9  250s
    *266035 24214             145       8.2404055    8.13052  1.33%  12.8  254s
     267175 24330    8.22570   68  105    8.24041    8.13119  1.33%  12.8  255s
     273082 25419    8.19269   61  105    8.24041    8.13405  1.29%  12.7  260s
     278981 26334    8.18086   67  120    8.24041    8.13698  1.26%  12.6  265s
     285087 26908    8.21967   72   90    8.24041    8.13969  1.22%  12.5  270s
     291129 27596     cutoff   74         8.24041    8.14170  1.20%  12.4  275s
     297200 28059    8.23630   78  105    8.24041    8.14413  1.17%  12.3  280s
     302927 28582    8.22535   68  105    8.24041    8.14626  1.14%  12.3  285s
     308684 29475     cutoff   73         8.24041    8.14780  1.12%  12.2  290s
     313908 29969     cutoff   85         8.24041    8.14933  1.11%  12.2  295s
    
    Cutting planes:
      Gomory: 4
      Implied bound: 1
      MIR: 8
      Flow cover: 71
      Inf proof: 1
      RLT: 5
    
    Explored 319484 nodes (3878337 simplex iterations) in 300.00 seconds (207.03 work units)
    Thread count was 1 (of 96 available processors)
    
    Solution count 10: 8.24041 8.24042 8.42777 ... 8.74451
    
    Time limit reached
    Warning: max constraint violation (2.4121e-06) exceeds tolerance
    Warning: max general constraint violation (2.4121e-06) exceeds tolerance
    Best objective 8.240405549273e+00, best bound 8.150906735268e+00, gap 1.0861%
    
    User-callback calls 319540, time in user-callback 0.02 sec

--- Reading solution for model GAMS_MODEL
***
*** Solver did not provide marginals for model GAMS_MODEL
***
--- Executing after solve: elapsed 0:05:00.058
--- model.gms(282) 3 Mb
--- model.gms(468) 5 Mb
--- Putfile results /local/scratch/a/sgusev/repos/k_means/data/gams_gurobi_gdp.binary_multiplication/no_mode/2026-02-19_02-40-18/original/results.dat
--- Putfile statresults /local/scratch/a/sgusev/repos/k_means/data/gams_gurobi_gdp.binary_multiplication/no_mode/2026-02-19_02-40-18/original/resultsstat.dat
*** Status: Normal completion
--- Job model.gms Stop 02/19/26 02:45:18 elapsed 0:05:00.058
Original problem solved. Time taken: 300.5508053302765 seconds
Original objective value: 8.240405549272639
